674
307
795
1547
2216
150
447
1602
1074
74
556
2572
679
766
1493
959
166
536
191
813
635
163
170
888
182
256
256
387
2077
388
263
333
180
1092
93
332
41
759
224
1991
332
106
0
95
1674
662
128
296
752
539
238
646
2920
265
61
67
1438
643
41
595
179
886
1631
616
73
1552
45
2022
2576
199
1102
597
1445
648
1083
296
143
524
136
775
35
957
1580
104
178
2175
716
1469
320
2014
1551
1663
97
1037
2474
811
83
143
557
452
